# Solution for model r3_t18_m2_1
# Finished Task: 16 / 18
# Makespan: 532.0, Total Distance: 520.0, Total Time: 0.8268
# R O S F
0 0 4 0.0 0.0
1 1 16 0.0 0.0
2 2 19 0.0 0.0
3 2 8 406.0 433.0
4 0 10 138.0 173.0
5 0 14 358.0 381.0
6 1 -1 428.0 462.0
7 2 3 353.0 391.0
8 2 9 452.0 488.0
9 2 -1 507.0 532.0
10 0 12 238.0 259.0
11 0 -1 474.0 513.0
12 0 5 288.0 325.0
13 -1 -1 -1.0 -1.0
14 0 20 398.0 432.0
15 -1 -1 -1.0 -1.0
16 1 18 255.0 294.0
17 1 6 386.0 410.0
18 1 17 330.0 368.0
19 2 7 274.0 295.0
20 0 11 432.0 453.0
